(set-logic HORN)
(declare-fun !inv0 (Int (Array Int Int) Int Int Int (Array Int Int) (Array Int Int) ) Bool)
(assert (forall ((N@0 Int)(aa@0 (Array Int Int))(a@0 Int)(b@0 Int)(cc@0 (Array Int Int))(c@0 Int)(bb@0 (Array Int Int))) (=> (and (> |N@0| 0) (= |a@0| 0) (= |b@0| 0) (= |c@0| 0)) (!inv0 |N@0| |aa@0| |a@0| |b@0| |c@0| |bb@0| |cc@0|))))
(assert (forall ((N@0 Int)(aa@0 (Array Int Int))(a@0 Int)(b@0 Int)(c@0 Int)(bb@0 (Array Int Int))(cc@0 (Array Int Int))) (=> (and (!inv0 |N@0| |aa@0| |a@0| |b@0| |c@0| |bb@0| |cc@0|) (not (< |a@0| |N@0|)) (not (forall ((x@0 Int)) (=> (and (<= 0 |x@0|) (< |x@0| |b@0|)) (>= (select |bb@0| |x@0|) 0))))) false)))
(assert (forall ((N@0 Int)(aa@0 (Array Int Int))(a@0 Int)(b@0 Int)(c@0 Int)(bb@0 (Array Int Int))(cc@0 (Array Int Int))) (=> (and (!inv0 |N@0| |aa@0| |a@0| |b@0| |c@0| |bb@0| |cc@0|) (not (< |a@0| |N@0|)) (forall ((x@0 Int)) (=> (and (<= 0 |x@0|) (< |x@0| |b@0|)) (>= (select |bb@0| |x@0|) 0))) (not (forall ((y@0 Int)) (=> (and (<= 0 |y@0|) (< |y@0| |c@0|)) (< (select |cc@0| |y@0|) 0))))) false)))
(assert (forall ((N@0 Int)(aa@0 (Array Int Int))(a@0 Int)(b@0 Int)(c@0 Int)(bb@0 (Array Int Int))(cc@0 (Array Int Int))(a@1 Int)(cc@1 (Array Int Int))(c@1 Int)) (=> (and (!inv0 |N@0| |aa@0| |a@0| |b@0| |c@1| |bb@0| |cc@1|) (= |a@1| (+ |a@0| 1)) (< |a@0| |N@0|) (not (>= (select |aa@0| |a@0|) 0)) (= |cc@0| (store |cc@1| |c@1| (select |aa@0| |a@0|))) (= |c@0| (+ |c@1| 1))) (!inv0 |N@0| |aa@0| |a@1| |b@0| |c@0| |bb@0| |cc@0|))))
(assert (forall ((N@0 Int)(aa@0 (Array Int Int))(a@0 Int)(b@0 Int)(c@0 Int)(bb@0 (Array Int Int))(cc@0 (Array Int Int))(a@1 Int)(b@1 Int)(bb@1 (Array Int Int))) (=> (and (!inv0 |N@0| |aa@0| |a@0| |b@1| |c@0| |bb@1| |cc@0|) (= |a@1| (+ |a@0| 1)) (< |a@0| |N@0|) (>= (select |aa@0| |a@0|) 0) (= |bb@0| (store |bb@1| |b@1| (select |aa@0| |a@0|))) (= |b@0| (+ |b@1| 1))) (!inv0 |N@0| |aa@0| |a@1| |b@0| |c@0| |bb@0| |cc@0|))))
(check-sat)